unsat
(define-fun inv-f ((c Int) (n Int) (tmp Int) (c_0 Int) (c_1 Int) (c_2 Int) (c_3 Int) (c_4 Int) (c_5 Int) (n_0 Int)) Bool (and (or (not (= c c_2)) (not (= n n_0)) (>= n_0 0) (not (= c_2 n_0))) (>= c 0)))
0.08user 0.00system 0:00.09elapsed 98%CPU (0avgtext+0avgdata 26744maxresident)k
0inputs+8outputs (0major+1492minor)pagefaults 0swaps
